188
500
400	1
399	1
398	2
396	1
394	2
393	1
392	1
391	1
390	4
389	1
388	1
385	4
384	1
381	3
380	1
379	1
378	1
376	2
374	1
373	1
369	1
366	2
365	2
363	3
362	3
361	1
360	1
357	1
354	1
353	2
352	1
350	1
346	1
345	1
344	1
342	2
341	1
340	3
339	3
338	1
336	2
335	1
334	1
332	2
331	3
327	1
324	2
323	3
321	2
320	1
319	1
315	3
314	2
312	1
310	1
308	1
300	2
298	1
296	1
295	1
293	1
292	1
291	2
290	2
289	3
287	3
286	2
285	1
284	1
283	1
282	1
280	1
279	1
277	2
275	1
274	1
271	1
270	2
269	1
266	1
265	1
264	3
263	1
260	1
259	1
256	3
253	1
252	1
251	1
248	2
246	2
245	1
244	1
243	4
242	1
237	1
236	1
234	1
233	3
232	1
231	1
230	1
229	1
226	1
225	2
224	1
222	1
221	1
219	1
214	2
213	2
212	1
211	2
210	2
208	1
206	1
205	2
203	1
202	2
201	2
200	3
198	2
195	2
194	1
193	1
192	1
191	4
189	2
187	2
186	1
184	2
183	3
180	1
177	1
175	3
174	2
173	1
172	2
171	1
170	1
169	1
166	2
165	1
164	1
163	1
162	1
161	1
160	1
159	3
158	1
157	2
156	1
155	1
153	4
152	2
150	4
149	2
148	1
147	1
146	1
145	6
144	1
140	1
139	2
138	1
136	2
133	1
131	1
130	1
129	3
128	3
127	2
126	2
123	3
122	1
121	2
120	1
118	2
115	2
113	1
111	1
110	1
108	1
106	1
105	1
104	1
103	2
101	3
